7
8
0 38 57 96 95 94 83 1
19
0 46 55 64 73 82 92 93 91 90 81 72 63 54 45 36 27 18 9
14
0 37 56 74 48 32 25 16 17 8 7 6 4 2
12
0 21 30 59 69 88 97 98 60 50 20 10
22
0 5 14 15 24 26 34 35 43 44 53 61 68 67 66 58 49 40 31 22 12 11
15
0 41 51 70 79 89 80 71 62 52 42 33 23 13 3
15
0 29 39 77 78 87 86 85 84 75 76 65 47 28 19
